p cnf 318 441
a 1 2 3 4 5 6 7 8 9 10 11 12 14 15 16 17 18 19 20 21 22 23 25 26 27 28 29 30 31 32 34 35 36 37 38 39 40 41 43 44 45 46 47 48 49 50 51 53 54 55 56 57 58 59 60 61 62 63 64 65 66 68 69 70 71 73 74 75 76 77 78 79 80 0
e 13 52 67 72 81 82 83 84 85 86 87 88 89 90 91 92 93 94 95 96 97 98 99 100 101 102 103 104 105 106 107 108 109 110 111 112 113 114 115 116 117 118 119 120 121 122 123 124 125 126 127 128 129 130 131 132 133 134 135 136 137 138 139 140 141 142 143 144 145 146 147 148 149 150 151 152 153 154 155 156 157 158 159 160 161 162 163 164 165 166 167 168 169 170 171 172 173 174 175 176 177 178 179 180 181 182 183 184 185 186 187 188 189 190 191 192 193 194 195 196 197 198 199 200 201 202 203 204 205 206 207 208 209 210 211 212 213 214 215 216 217 218 219 220 221 222 223 224 225 226 227 228 229 230 231 232 233 234 235 236 237 238 239 240 241 242 243 244 245 246 247 248 249 250 251 252 253 254 255 256 257 258 259 260 261 262 263 264 265 266 267 268 269 270 271 272 273 274 275 276 277 278 279 280 281 282 283 284 285 286 287 288 289 290 291 292 293 294 295 296 297 298 299 300 301 302 303 304 305 306 307 308 309 310 311 312 313 314 315 316 317 318 0
-318 0
318 -261 0
318 -295 0
318 -307 0
318 -317 0
4 3 2 -260 -316 -313 -310 317 0
316 -314 0
316 -315 0
316 -202 0
316 -213 0
316 -214 0
316 -215 0
-116 -115 -114 -113 -229 -142 315 0
-116 -115 -114 -113 -288 -127 314 0
313 -311 0
313 -312 0
313 -272 0
313 -273 0
313 -274 0
313 -275 0
-116 -115 -114 -113 -142 -301 312 0
-116 -115 -114 -113 -112 -281 311 0
310 -308 0
310 -309 0
310 -117 0
310 -138 0
310 -143 0
310 -190 0
-116 -115 -114 -113 -127 -297 309 0
-116 -115 -114 -113 -112 -167 308 0
4 3 1 -260 -306 -303 -299 307 0
306 -245 0
306 -304 0
306 -305 0
306 -251 0
306 -252 0
306 -253 0
-116 -115 -114 -113 -164 -292 305 0
-116 -115 -114 -113 -96 -249 304 0
303 -300 0
303 -302 0
303 -272 0
303 -278 0
303 -279 0
303 -280 0
-116 -115 -114 -113 -301 -96 302 0
301 -283 0
301 -284 0
301 -285 0
-116 -115 -114 -113 -159 -276 300 0
299 -296 0
299 -298 0
299 -160 0
299 -165 0
299 -166 0
299 -190 0
-116 -115 -114 -113 -164 -297 298 0
297 -173 0
297 -174 0
297 -175 0
-116 -115 -114 -113 -159 -144 296 0
3 2 1 -260 -294 -290 -286 295 0
294 -245 0
294 -246 0
294 -247 0
294 -291 0
294 -293 0
294 -248 0
-116 -115 -114 -113 -226 -292 293 0
292 -256 0
292 -257 0
292 -258 0
-116 -115 -212 -114 -113 -254 291 0
290 -202 0
290 -287 0
290 -289 0
290 -222 0
290 -227 0
290 -228 0
-116 -115 -114 -113 -226 -288 289 0
288 -231 0
288 -232 0
288 -233 0
-116 -115 -114 -113 -221 -216 287 0
286 -272 0
286 -277 0
286 -282 0
286 -283 0
286 -284 0
286 -285 0
-116 -115 -114 -113 -226 285 0
-116 -115 -212 -114 -113 -164 284 0
-116 -115 -114 -113 -221 -127 283 0
-116 -115 -212 -114 -113 -281 282 0
281 -278 0
281 -279 0
281 -280 0
-116 -115 -114 -113 -164 280 0
-116 -115 -114 -113 -226 -96 279 0
-116 -115 -114 -113 -127 -159 278 0
-116 -115 -114 -113 -221 -276 277 0
276 -273 0
276 -274 0
276 -275 0
-116 -115 -114 -113 -127 275 0
-116 -115 -114 -113 -226 -142 274 0
-116 -115 -114 -113 -112 -164 273 0
-189 -188 -187 -176 -271 272 0
271 -264 0
271 -267 0
271 -270 0
17 54 -269 -268 270 0
269 52 0
269 10 0
268 -52 0
268 7 0
15 53 -266 -265 267 0
266 52 0
266 8 0
265 -52 0
265 6 0
12 51 -263 -262 264 0
263 52 0
263 9 0
262 -52 0
262 5 0
4 2 1 -260 -259 -234 -191 261 0
260 -4 0
260 -3 0
260 -2 0
260 -1 0
259 -245 0
259 -250 0
259 -255 0
259 -256 0
259 -257 0
259 -258 0
-116 -115 -114 -113 -154 258 0
-116 -115 -114 -113 -221 -137 257 0
-116 -115 -114 -113 -171 -159 256 0
-116 -115 -114 -113 -171 -254 255 0
254 -251 0
254 -252 0
254 -253 0
-116 -115 -114 -113 -159 253 0
-116 -115 -114 -113 -221 -96 252 0
-116 -115 -114 -113 -154 -164 251 0
-116 -115 -114 -113 -137 -249 250 0
249 -246 0
249 -247 0
249 -248 0
-116 -115 -114 -113 -221 248 0
-116 -115 -114 -113 -226 -154 247 0
-116 -115 -212 -114 -113 -159 246 0
-189 -188 -187 -176 -244 245 0
244 -237 0
244 -240 0
244 -243 0
54 80 -242 -241 243 0
242 72 0
242 10 0
241 -72 0
241 7 0
53 79 -239 -238 240 0
239 72 0
239 8 0
238 -72 0
238 6 0
51 78 -236 -235 237 0
236 72 0
236 9 0
235 -72 0
235 5 0
234 -202 0
234 -217 0
234 -230 0
234 -231 0
234 -232 0
234 -233 0
-116 -115 -114 -113 -171 233 0
-116 -115 -212 -114 -113 -137 232 0
-116 -115 -114 -113 -112 -154 231 0
-116 -115 -114 -113 -229 -137 230 0
229 -222 0
229 -227 0
229 -228 0
-116 -115 -212 -114 -113 228 0
-116 -115 -114 -113 -171 -226 227 0
226 -223 0
226 -224 0
226 -225 0
61 48 46 45 43 63 62 -210 -209 -125 -124 225 0
-207 39 37 36 34 60 59 58 -206 -122 -121 224 0
25 28 30 27 56 55 57 -204 -203 -119 -118 223 0
-116 -115 -114 -113 -112 -221 222 0
221 -218 0
221 -219 0
221 -220 0
61 48 45 43 62 74 47 -210 -209 -152 -151 220 0
-207 39 38 36 34 59 58 73 -149 -206 -148 219 0
25 30 29 27 56 55 71 -204 -203 -146 -145 218 0
-116 -115 -114 -113 -154 -216 217 0
216 -213 0
216 -214 0
216 -215 0
-116 -115 -114 -113 -112 215 0
-116 -115 -114 -113 -171 -127 214 0
-116 -115 -212 -114 -113 -142 213 0
212 -205 0
212 -208 0
212 -211 0
61 48 46 45 43 62 47 -110 -109 -210 -209 211 0
210 23 0
210 13 0
209 20 0
209 -13 0
-207 39 38 37 36 34 59 58 -105 -104 -206 208 0
207 19 0
207 -13 0
206 21 0
206 13 0
25 28 30 29 27 56 55 -100 -99 -204 -203 205 0
204 22 0
204 13 0
203 18 0
203 -13 0
-189 -188 -187 -176 -201 202 0
201 -194 0
201 -197 0
201 -200 0
17 54 -199 -198 200 0
199 67 0
199 10 0
198 -67 0
198 7 0
15 53 -196 -195 197 0
196 67 0
196 8 0
195 -67 0
195 6 0
12 51 -193 -192 194 0
193 67 0
193 9 0
192 -67 0
192 5 0
191 -155 0
191 -172 0
191 -173 0
191 -174 0
191 -175 0
191 -190 0
-189 -188 -187 -186 -176 190 0
189 6 0
189 -5 0
188 9 0
188 -8 0
187 7 0
187 -6 0
186 -179 0
186 -182 0
186 -185 0
17 16 -184 -183 185 0
184 10 0
184 13 0
183 7 0
183 -13 0
-181 -180 15 14 182 0
181 6 0
181 -13 0
180 8 0
180 13 0
-178 -177 12 11 179 0
178 9 0
178 13 0
177 5 0
177 -13 0
176 8 0
176 -10 0
-116 -115 -114 -113 -137 175 0
-116 -115 -114 -113 -171 -96 174 0
-116 -115 -114 -113 -154 -142 173 0
-116 -115 -114 -113 -171 -167 172 0
171 -168 0
171 -169 0
171 -170 0
61 66 48 46 45 63 62 -110 -109 -135 -134 170 0
39 37 36 65 60 59 58 -105 -104 -132 -131 169 0
28 30 27 56 55 64 57 -129 -100 -99 -128 168 0
167 -160 0
167 -165 0
167 -166 0
-116 -115 -114 -113 -96 166 0
-116 -115 -114 -113 -137 -164 165 0
164 -161 0
164 -162 0
164 -163 0
61 66 46 45 62 47 70 -125 -124 -92 -91 163 0
38 37 36 69 65 59 58 -122 -121 -87 -86 162 0
28 29 27 56 55 68 64 -119 -118 -82 -81 161 0
-116 -115 -114 -113 -142 -159 160 0
159 -156 0
159 -157 0
159 -158 0
61 66 48 45 63 62 74 -152 -151 -92 -91 158 0
39 36 65 60 59 58 73 -149 -148 -87 -86 157 0
30 27 56 55 64 57 71 -146 -145 -82 -81 156 0
-116 -115 -114 -113 -154 -144 155 0
154 -147 0
154 -150 0
154 -153 0
61 66 48 45 62 74 47 -135 -134 -152 -151 153 0
152 72 0
152 50 0
151 49 0
151 -72 0
39 38 36 65 59 58 73 -149 -132 -131 -148 150 0
149 40 0
149 -72 0
148 41 0
148 72 0
30 29 27 56 55 64 71 -129 -128 -146 -145 147 0
146 72 0
146 32 0
145 -72 0
145 31 0
144 -117 0
144 -138 0
144 -143 0
-116 -115 -114 -113 -142 143 0
142 -139 0
142 -140 0
142 -141 0
61 66 48 46 47 77 44 -108 -107 -94 -93 141 0
39 38 35 37 76 65 58 -103 -102 -89 -88 140 0
28 30 29 26 55 64 75 -98 -97 -84 -83 139 0
-116 -115 -114 -113 -137 -127 138 0
137 -130 0
137 -133 0
137 -136 0
61 66 46 45 47 70 44 -135 -134 -94 -93 136 0
135 52 0
135 23 0
134 -52 0
134 20 0
38 35 37 36 69 65 58 -132 -131 -89 -88 133 0
132 52 0
132 21 0
131 -52 0
131 19 0
28 29 27 26 55 68 64 -129 -128 -84 -83 130 0
129 52 0
129 22 0
128 -52 0
128 18 0
127 -120 0
127 -123 0
127 -126 0
61 66 48 46 62 47 77 -125 -124 -108 -107 126 0
125 50 0
125 52 0
124 49 0
124 -52 0
39 38 37 76 65 59 58 -122 -121 -103 -102 123 0
122 41 0
122 52 0
121 40 0
121 -52 0
28 30 29 56 55 64 75 -119 -118 -98 -97 120 0
119 52 0
119 32 0
118 -52 0
118 31 0
-116 -115 -114 -113 -112 -96 117 0
116 20 0
116 -19 0
115 22 0
115 -21 0
114 21 0
114 -23 0
113 19 0
113 -18 0
112 -101 0
112 -106 0
112 -111 0
61 66 46 62 47 77 70 -110 -109 -108 -107 111 0
110 49 0
110 -67 0
109 67 0
109 50 0
108 72 0
108 23 0
107 -72 0
107 20 0
38 37 76 69 65 59 58 -105 -104 -103 -102 106 0
105 41 0
105 67 0
104 40 0
104 -67 0
103 72 0
103 21 0
102 -72 0
102 19 0
28 29 56 55 68 64 75 -100 -99 -98 -97 101 0
100 67 0
100 32 0
99 -67 0
99 31 0
98 72 0
98 22 0
97 -72 0
97 18 0
96 -85 0
96 -90 0
96 -95 0
61 66 48 46 45 47 44 -94 -93 -92 -91 95 0
94 50 0
94 13 0
93 49 0
93 -13 0
92 67 0
92 23 0
91 -67 0
91 20 0
39 38 35 37 36 65 58 -89 -88 -87 -86 90 0
89 41 0
89 13 0
88 40 0
88 -13 0
87 67 0
87 21 0
86 -67 0
86 19 0
28 30 29 27 26 55 64 -84 -83 -82 -81 85 0
84 32 0
84 13 0
83 31 0
83 -13 0
82 67 0
82 22 0
81 -67 0
81 18 0
